p cnf 77 184
-9 -33 0
-10 -33 0
9 10 33 0
9 10 -34 0
-9 -10 -34 0
-9 10 34 0
9 -10 34 0
33 -35 0
-11 -35 0
11 -33 35 0
11 -33 -36 0
-11 33 -36 0
11 33 36 0
-11 -33 36 0
35 -37 0
-12 -37 0
12 -35 37 0
12 -35 -38 0
-12 35 -38 0
12 35 38 0
-12 -35 38 0
37 -39 0
-13 -39 0
13 -37 39 0
13 -37 -40 0
-13 37 -40 0
13 37 40 0
-13 -37 40 0
39 -41 0
-14 -41 0
14 -39 41 0
14 -39 -42 0
-14 39 -42 0
14 39 42 0
-14 -39 42 0
41 -43 0
-15 -43 0
15 -41 43 0
15 -41 -44 0
-15 41 -44 0
15 41 44 0
-15 -41 44 0
43 -45 0
-16 -45 0
16 -43 45 0
16 -43 -46 0
-16 43 -46 0
16 43 46 0
-16 -43 46 0
-9 -47 0
-10 -47 0
9 10 47 0
9 10 -48 0
-9 -10 -48 0
-9 10 48 0
9 -10 48 0
47 -49 0
-11 -49 0
11 -47 49 0
11 -47 -50 0
-11 47 -50 0
11 47 50 0
-11 -47 50 0
49 -51 0
-12 -51 0
12 -49 51 0
12 -49 -52 0
-12 49 -52 0
12 49 52 0
-12 -49 52 0
51 -53 0
-13 -53 0
13 -51 53 0
13 -51 -54 0
-13 51 -54 0
13 51 54 0
-13 -51 54 0
53 -55 0
-14 -55 0
14 -53 55 0
14 -53 -56 0
-14 53 -56 0
14 53 56 0
-14 -53 56 0
55 -57 0
-15 -57 0
15 -55 57 0
15 -55 -58 0
-15 55 -58 0
15 55 58 0
-15 -55 58 0
57 -59 0
-16 -59 0
16 -57 59 0
16 -57 -60 0
-16 57 -60 0
16 57 60 0
-16 -57 60 0
6 -61 0
9 -61 0
-6 -9 61 0
-6 -9 -62 0
6 9 -62 0
-6 9 62 0
6 -9 62 0
-7 -10 63 0
-7 -61 63 0
-10 -61 63 0
7 10 -63 0
7 61 -63 0
10 61 -63 0
7 -63 -64 0
10 -63 -64 0
61 -63 -64 0
-7 63 64 0
-10 63 64 0
-61 63 64 0
-7 -10 -61 64 0
7 10 61 -64 0
-8 -11 65 0
-8 -63 65 0
-11 -63 65 0
8 11 -65 0
8 63 -65 0
11 63 -65 0
8 -65 -66 0
11 -65 -66 0
63 -65 -66 0
-8 65 66 0
-11 65 66 0
-63 65 66 0
-8 -11 -63 66 0
8 11 63 -66 0
12 -67 0
65 -67 0
-12 -65 67 0
-12 -65 -68 0
12 65 -68 0
-12 65 68 0
12 -65 68 0
13 -69 0
67 -69 0
-13 -67 69 0
-13 -67 -70 0
13 67 -70 0
-13 67 70 0
13 -67 70 0
14 -71 0
69 -71 0
-14 -69 71 0
-14 -69 -72 0
14 69 -72 0
-14 69 72 0
14 -69 72 0
15 -73 0
71 -73 0
-15 -71 73 0
-15 -71 -74 0
15 71 -74 0
-15 71 74 0
15 -71 74 0
16 -75 0
73 -75 0
-16 -73 75 0
-16 -73 -76 0
16 73 -76 0
-16 73 76 0
16 -73 76 0
-1 -77 0
-2 -77 0
-3 -77 0
4 -77 0
-5 -77 0
-62 -77 0
64 -77 0
66 -77 0
-68 -77 0
-70 -77 0
-72 -77 0
-74 -77 0
-75 -77 0
-76 -77 0
1 2 3 -4 5 62 -64 -66 68 70 72 74 75 76 77 0
77 0
c main::$tmp::return_value_nondet_char!0@1#1 17 18 19 20 21 22 23 24
c symex::nondet1 9 10 11 12 13 14 15 16
c symex::nondet0 1 2 3 4 5 6 7 8
c main::$tmp::return_value_nondet_char$0!0@1#2 9 10 11 12 13 14 15 16
c __CPROVER_rounding_mode!0#1 FALSE FALSE FALSE FALSE FALSE FALSE FALSE FALSE FALSE FALSE FALSE FALSE FALSE FALSE FALSE FALSE FALSE FALSE FALSE FALSE FALSE FALSE FALSE FALSE FALSE FALSE FALSE FALSE FALSE FALSE FALSE FALSE
c main::$tmp::return_value_nondet_char$0!0@1#1 25 26 27 28 29 30 31 32
c __CPROVER_memory_leak#1 FALSE FALSE FALSE FALSE FALSE FALSE FALSE FALSE FALSE FALSE FALSE FALSE FALSE FALSE FALSE FALSE FALSE FALSE FALSE FALSE FALSE FALSE FALSE FALSE FALSE FALSE FALSE FALSE FALSE FALSE FALSE FALSE FALSE FALSE FALSE FALSE FALSE FALSE FALSE FALSE FALSE FALSE FALSE FALSE FALSE FALSE FALSE FALSE FALSE FALSE FALSE FALSE FALSE FALSE FALSE FALSE FALSE FALSE FALSE FALSE FALSE FALSE FALSE FALSE
c __CPROVER_max_malloc_size#1 FALSE FALSE FALSE FALSE FALSE FALSE FALSE FALSE FALSE FALSE FALSE FALSE FALSE FALSE FALSE FALSE FALSE FALSE FALSE FALSE FALSE FALSE FALSE FALSE FALSE FALSE FALSE FALSE FALSE FALSE FALSE FALSE FALSE FALSE FALSE FALSE FALSE FALSE FALSE FALSE FALSE FALSE FALSE FALSE FALSE FALSE FALSE FALSE FALSE FALSE FALSE FALSE FALSE FALSE FALSE TRUE FALSE FALSE FALSE FALSE FALSE FALSE FALSE FALSE
c __CPROVER_deallocated#1 FALSE FALSE FALSE FALSE FALSE FALSE FALSE FALSE FALSE FALSE FALSE FALSE FALSE FALSE FALSE FALSE FALSE FALSE FALSE FALSE FALSE FALSE FALSE FALSE FALSE FALSE FALSE FALSE FALSE FALSE FALSE FALSE FALSE FALSE FALSE FALSE FALSE FALSE FALSE FALSE FALSE FALSE FALSE FALSE FALSE FALSE FALSE FALSE FALSE FALSE FALSE FALSE FALSE FALSE FALSE FALSE FALSE FALSE FALSE FALSE FALSE FALSE FALSE FALSE
c main::$tmp::return_value_nondet_char!0@1#2 1 2 3 4 5 6 7 8
c __CPROVER_dead_object#1 FALSE FALSE FALSE FALSE FALSE FALSE FALSE FALSE FALSE FALSE FALSE FALSE FALSE FALSE FALSE FALSE FALSE FALSE FALSE FALSE FALSE FALSE FALSE FALSE FALSE FALSE FALSE FALSE FALSE FALSE FALSE FALSE FALSE FALSE FALSE FALSE FALSE FALSE FALSE FALSE FALSE FALSE FALSE FALSE FALSE FALSE FALSE FALSE FALSE FALSE FALSE FALSE FALSE FALSE FALSE FALSE FALSE FALSE FALSE FALSE FALSE FALSE FALSE FALSE
